g3 1 1 0	# problem unknown
 10 5 1 0 5 	# vars, constraints, objectives, general inequalities, equalities  
 5 1 	# nonlinear constraints, objectives
 0 0	# network constraints: nonlinear, linear
 10 10 10 	# nonlinear vars in constraints, objectives, both
 0 0 0 1	# linear network variables; functions; arith, flags
 0 0 0 0 0 	# discrete variables: binary, integer, nonlinear (b,c,o)
 30 10 	# nonzeros in Jacobian, obj. gradient
 0 0	# max name lengths: constraints, variables
 0 0 0 0 0	# common exprs: b,c,o,c1,o1
C0	#unknown_cons1
o2
v1
v2
C1	#unknown_cons2
o2
v1
o2
v2
o2
v3
v4
C2	#unknown_cons3
o2
v1
o2
v2
o2
v3
o2
v4
o2
v5
v6
C3	#unknown_cons4
o2
v1
o2
v2
o2
v3
o2
v4
o2
v5
o2
v6
o2
v7
v8
C4	#unknown_cons5
o2
v1
o2
v2
o2
v3
o2
v4
o2
v5
o2
v6
o2
v7
o2
v8
o2
v9
v0
O0 0
o54
49
o2
n100
o5
o0
v2
o2
n-1
o5
v1
n2
n2
o2
n100
o5
o0
v3
o2
n-1
o5
v2
n2
n2
o2
n100
o5
o0
v4
o2
n-1
o5
v3
n2
n2
o2
n100
o5
o0
v5
o2
n-1
o5
v4
n2
n2
o2
n100
o5
o0
v6
o2
n-1
o5
v5
n2
n2
o2
n100
o5
o0
v7
o2
n-1
o5
v6
n2
n2
o2
n100
o5
o0
v8
o2
n-1
o5
v7
n2
n2
o5
o0
n-1
v1
n2
o5
o0
n-1
v2
n2
o5
o0
n-1
v3
n2
o5
o0
n-1
v4
n2
o5
o0
n-1
v5
n2
o5
o0
n-1
v6
n2
o5
o0
n-1
v7
n2
o2
n90
o5
o0
v4
o2
n-1
o5
v3
n2
n2
o2
n90
o5
o0
v5
o2
n-1
o5
v4
n2
n2
o2
n90
o5
o0
v6
o2
n-1
o5
v5
n2
n2
o2
n90
o5
o0
v7
o2
n-1
o5
v6
n2
n2
o2
n90
o5
o0
v8
o2
n-1
o5
v7
n2
n2
o2
n90
o5
o0
v9
o2
n-1
o5
v8
n2
n2
o2
n90
o5
o0
v0
o2
n-1
o5
v9
n2
n2
o5
o0
n-1
v3
n2
o5
o0
n-1
v4
n2
o5
o0
n-1
v5
n2
o5
o0
n-1
v6
n2
o5
o0
n-1
v7
n2
o5
o0
n-1
v8
n2
o5
o0
n-1
v9
n2
o2
n10.1
o5
o0
n-1
v2
n2
o2
n10.1
o5
o0
n-1
v3
n2
o2
n10.1
o5
o0
n-1
v4
n2
o2
n10.1
o5
o0
n-1
v5
n2
o2
n10.1
o5
o0
n-1
v6
n2
o2
n10.1
o5
o0
n-1
v7
n2
o2
n10.1
o5
o0
n-1
v8
n2
o2
n10.1
o5
o0
n-1
v4
n2
o2
n10.1
o5
o0
n-1
v5
n2
o2
n10.1
o5
o0
n-1
v6
n2
o2
n10.1
o5
o0
n-1
v7
n2
o2
n10.1
o5
o0
n-1
v8
n2
o2
n10.1
o5
o0
n-1
v9
n2
o2
n10.1
o5
o0
n-1
v0
n2
o2
n19.8
o2
o0
n-1
v2
o0
n-1
v4
o2
n19.8
o2
o0
n-1
v3
o0
n-1
v5
o2
n19.8
o2
o0
n-1
v4
o0
n-1
v6
o2
n19.8
o2
o0
n-1
v5
o0
n-1
v7
o2
n19.8
o2
o0
n-1
v6
o0
n-1
v8
o2
n19.8
o2
o0
n-1
v7
o0
n-1
v9
o2
n19.8
o2
o0
n-1
v8
o0
n-1
v0
x10
0 -0.16667
1 -2
2 -0.5
3 3
4 0.33333
5 -4
6 -0.25
7 5
8 0.2
9 -6
r
4 1 
4 1 
4 1 
4 1 
4 1 
b
3
3
3
3
3
3
3
3
3
3
k9
1
6
11
15
19
22
25
27
29
J0 2
1 0
2 0
J1 4
1 0
2 0
3 0
4 0
J2 6
1 0
2 0
3 0
4 0
5 0
6 0
J3 8
1 0
2 0
3 0
4 0
5 0
6 0
7 0
8 0
J4 10
0 0
1 0
2 0
3 0
4 0
5 0
6 0
7 0
8 0
9 0
G0 10
0 0
1 0
2 0
3 0
4 0
5 0
6 0
7 0
8 0
9 0
